% seed = 0

mint = 26;
% maxt = 74;

nActs = 32;
dur = [0,3,1,3,1,3,3,5,2,1,4,3,1,1,2,2,3,4,2,2,3,3,2,2,1,3,1,1,4,6,2,0];

nSkills = 12;
sreq = [| 0,0,0,0,0,0,0,0,0,0,0,0,
	| 0,0,0,0,0,1,0,2,1,0,0,0,
	| 0,0,1,0,0,2,0,0,1,1,0,0,
	| 0,0,0,0,0,0,0,0,1,0,0,0,
	| 0,1,0,0,0,1,0,0,0,0,0,0,
	| 0,0,0,0,0,0,0,1,0,0,1,0,
	| 0,0,0,0,0,1,2,1,1,0,0,0,
	| 0,0,1,0,0,0,1,3,0,1,0,0,
	| 0,0,0,0,0,2,0,1,2,0,0,0,
	| 0,0,0,0,0,0,0,0,0,1,0,0,
	| 0,0,1,1,1,0,1,0,1,0,0,0,
	| 0,0,0,1,1,0,0,0,2,0,0,0,
	| 0,0,0,0,0,0,0,1,2,1,1,0,
	| 0,0,0,2,0,1,0,0,2,0,1,0,
	| 0,0,0,0,0,0,0,0,1,0,1,0,
	| 0,0,0,1,0,0,0,1,1,0,0,0,
	| 0,0,0,0,0,0,1,1,1,0,0,0,
	| 0,0,2,0,0,1,0,2,0,0,0,0,
	| 0,0,0,0,0,0,1,1,2,0,1,0,
	| 0,1,1,0,0,1,0,1,0,0,0,0,
	| 0,0,1,1,0,0,0,2,0,0,0,0,
	| 0,0,0,0,0,0,1,0,0,0,0,0,
	| 0,1,0,0,0,0,0,1,0,1,0,0,
	| 0,1,1,1,0,0,0,1,1,0,0,0,
	| 0,0,1,1,1,1,0,0,0,0,0,0,
	| 0,0,0,1,0,0,1,0,1,0,1,0,
	| 0,0,0,0,0,0,0,1,0,0,0,0,
	| 0,1,1,0,0,0,0,0,1,1,1,0,
	| 0,0,0,1,0,0,0,0,0,0,0,1,
	| 1,0,0,0,0,2,1,0,0,0,0,0,
	| 0,0,0,0,0,0,0,0,2,0,1,0,
	| 0,0,0,0,0,0,0,0,0,0,0,0, |];

% SumOfsreq = 109;

nResources = 18;
mastery = [| false,false,false,false,false,true,false,false,false,false,false,false,
	| true,true,true,true,true,true,false,false,false,false,false,false,
	| false,false,false,true,true,true,false,false,true,true,true,true,
	| false,false,false,true,true,true,false,false,false,true,true,true,
	| false,false,true,false,false,false,false,false,false,false,false,true,
	| false,false,false,false,false,false,false,true,true,false,false,false,
	| false,false,false,true,true,true,false,false,false,false,false,false,
	| false,false,false,false,false,true,false,true,true,false,false,false,
	| false,true,true,false,false,false,false,false,false,false,false,false,
	| false,false,false,false,false,false,true,true,true,true,true,true,
	| false,false,false,false,false,false,false,true,true,false,false,false,
	| false,false,false,false,false,false,false,true,true,false,false,false,
	| false,false,false,false,false,false,true,true,true,false,false,true,
	| false,false,false,false,false,false,true,true,true,false,false,false,
	| false,false,false,false,false,false,false,false,true,false,false,false,
	| false,false,false,false,false,false,false,true,true,false,false,false,
	| false,false,false,false,false,false,true,true,true,true,true,true,
	| false,false,false,false,false,false,false,false,false,false,true,true, |];

nPrecs = 48;
pred = [1,1,1,2,2,2,3,3,3,4,4,4,5,6,7,8,8,8,9,10,10,11,11,12,13,13,14,15,16,16,17,18,18,19,19,20,20,21,22,23,24,25,26,27,28,29,30,31];
succ = [2,3,4,11,6,15,13,7,8,9,10,5,20,30,27,19,12,27,14,25,16,26,20,14,17,18,17,25,21,22,22,20,22,29,24,25,23,28,23,24,30,30,31,28,31,32,32,32];

nUnrels = 291;
unpred = [2,2,2,2,2,2,2,2,2,2,2,2,2,2,2,2,2,2,2,3,3,3,3,3,3,3,3,3,3,4,4,4,4,4,4,4,4,4,4,4,4,5,5,5,5,5,5,5,5,5,5,5,5,5,5,5,5,5,5,5,5,5,6,6,6,6,6,6,6,6,6,6,6,6,6,6,6,6,6,6,6,6,6,6,6,6,7,7,7,7,7,7,7,7,7,7,7,7,7,7,7,7,7,7,7,7,7,8,8,8,8,8,8,8,8,8,8,8,9,9,9,9,9,9,9,9,9,9,9,9,9,9,9,9,10,10,10,10,10,10,10,10,10,10,10,10,11,11,11,11,11,11,11,11,11,11,11,11,11,12,12,12,12,12,12,12,12,12,12,12,12,12,13,13,13,13,13,13,13,13,13,13,14,14,14,14,14,14,14,14,14,14,14,14,15,15,15,15,15,15,15,15,15,15,15,15,15,15,16,16,16,16,16,16,16,16,17,17,17,17,17,17,17,17,17,17,18,18,18,18,18,18,18,19,19,19,19,19,19,19,19,19,20,20,20,20,20,20,20,21,21,21,21,21,21,21,21,22,22,22,22,22,22,23,23,23,23,23,23,24,24,24,24,24,24,25,25,25,25,25,26,26,26,26,27,27,28,28,29,29,30];
unsucc = [3,4,5,7,8,9,10,12,13,14,16,17,18,19,21,22,27,28,29,4,5,6,9,10,11,15,16,21,26,6,7,8,11,12,13,15,18,19,26,27,29,6,7,8,9,10,11,12,13,14,15,16,17,18,19,21,22,26,27,28,29,31,7,8,9,10,11,12,13,14,15,16,17,18,19,20,21,22,23,24,25,26,27,28,29,31,8,9,10,11,12,13,14,15,16,17,18,19,20,21,22,23,24,25,26,29,30,9,10,11,13,15,16,18,20,21,25,26,10,11,12,13,15,16,18,19,20,21,25,26,27,28,29,31,11,12,13,14,15,17,18,19,20,26,27,29,12,13,14,15,16,17,18,19,21,22,27,28,29,13,15,16,18,19,20,21,25,26,27,28,29,31,14,15,16,19,21,26,27,28,29,31,15,16,18,19,20,21,25,26,27,28,29,31,16,17,18,19,20,21,22,23,24,26,27,28,29,31,17,18,19,20,25,26,27,29,18,19,20,21,25,26,27,28,29,31,19,21,26,27,28,29,31,20,21,22,23,25,26,27,28,31,21,22,26,27,28,29,31,22,23,24,25,26,27,29,30,25,26,27,28,29,31,25,26,27,28,29,31,25,26,27,28,29,31,26,27,28,29,31,27,28,29,30,29,30,29,30,30,31,31];

USEFUL_RES = [{},
	{1,2,3,4,6,7,8,10,11,12,13,14,15,16,17},
	{1,2,3,4,5,6,7,8,9,10,11,12,13,14,15,16,17},
	{3,6,8,10,11,12,13,14,15,16,17},
	{1,2,3,4,7,8,9},
	{3,4,6,8,10,11,12,13,14,16,17,18},
	{1,2,3,4,6,7,8,10,11,12,13,14,15,16,17},
	{2,3,4,5,6,8,9,10,11,12,13,14,16,17},
	{1,2,3,4,6,7,8,10,11,12,13,14,15,16,17},
	{3,4,10,17},
	{2,3,4,5,6,7,8,9,10,11,12,13,14,15,16,17},
	{2,3,4,6,7,8,10,11,12,13,14,15,16,17},
	{3,4,6,8,10,11,12,13,14,15,16,17,18},
	{1,2,3,4,6,7,8,10,11,12,13,14,15,16,17,18},
	{3,4,6,8,10,11,12,13,14,15,16,17,18},
	{2,3,4,6,7,8,10,11,12,13,14,15,16,17},
	{3,6,8,10,11,12,13,14,15,16,17},
	{1,2,3,4,5,6,7,8,9,10,11,12,13,14,16,17},
	{3,4,6,8,10,11,12,13,14,15,16,17,18},
	{1,2,3,4,5,6,7,8,9,10,11,12,13,14,16,17},
	{2,3,4,5,6,7,8,9,10,11,12,13,14,16,17},
	{10,13,14,17},
	{2,3,4,6,8,9,10,11,12,13,14,16,17},
	{2,3,4,5,6,7,8,9,10,11,12,13,14,15,16,17},
	{1,2,3,4,5,7,8,9},
	{2,3,4,6,7,8,10,11,12,13,14,15,16,17,18},
	{6,8,10,11,12,13,14,16,17},
	{2,3,4,5,6,8,9,10,11,12,13,14,15,16,17,18},
	{2,3,4,5,7,10,13,17,18},
	{1,2,3,4,7,8,10,13,14,17},
	{3,4,6,8,10,11,12,13,14,15,16,17,18},
	{}];

POTENTIAL_ACT = [{2,3,5,7,9,14,18,20,25,30},
	{2,3,5,7,8,9,11,12,14,16,18,20,21,23,24,25,26,28,29,30},
	{2,3,4,5,6,7,8,9,10,11,12,13,14,15,16,17,18,19,20,21,23,24,25,26,28,29,30,31},
	{2,3,5,6,7,8,9,10,11,12,13,14,15,16,18,19,20,21,23,24,25,26,28,29,30,31},
	{3,8,11,18,20,21,24,25,28,29},
	{2,3,4,6,7,8,9,11,12,13,14,15,16,17,18,19,20,21,23,24,26,27,28,31},
	{2,3,5,7,9,11,12,14,16,18,20,21,24,25,26,29,30},
	{2,3,4,5,6,7,8,9,11,12,13,14,15,16,17,18,19,20,21,23,24,25,26,27,28,30,31},
	{3,5,8,11,18,20,21,23,24,25,28},
	{2,3,4,6,7,8,9,10,11,12,13,14,15,16,17,18,19,20,21,22,23,24,26,27,28,29,30,31},
	{2,3,4,6,7,8,9,11,12,13,14,15,16,17,18,19,20,21,23,24,26,27,28,31},
	{2,3,4,6,7,8,9,11,12,13,14,15,16,17,18,19,20,21,23,24,26,27,28,31},
	{2,3,4,6,7,8,9,11,12,13,14,15,16,17,18,19,20,21,22,23,24,26,27,28,29,30,31},
	{2,3,4,6,7,8,9,11,12,13,14,15,16,17,18,19,20,21,22,23,24,26,27,28,30,31},
	{2,3,4,7,9,11,12,13,14,15,16,17,19,24,26,28,31},
	{2,3,4,6,7,8,9,11,12,13,14,15,16,17,18,19,20,21,23,24,26,27,28,31},
	{2,3,4,6,7,8,9,10,11,12,13,14,15,16,17,18,19,20,21,22,23,24,26,27,28,29,30,31},
	{6,13,14,15,19,26,28,29,31}];
